1, 19, 20, 36, 34, 32, 23, 29, 28, 27, 22, 21, 30, 52, 53, 15, 1
1, 35, 39, 42, 43, 51, 50, 48, 49, 41, 40, 38, 33, 1
1, 26, 31, 25, 44, 45, 46, 47, 37, 24, 17, 1
1, 14, 16, 4, 6, 5, 13, 9, 12, 11, 10, 8, 7, 3, 2, 18, 1
